
A = 7;
T = 61;
X = 10;
Y = 10;
Z = 3;
building = array2d(0..9, 0..9,
                   [0, 0, 0, 0, 0, 0, 0, 0, 0, 0, 0, 1, 0, 0, 1, 1, 1, 2, 0, 0, 0, 1, 2, 1, 0, 0, 1, 1, 0, 0,
                    0, 0, 0, 0, 0, 0, 0, 0, 0, 0, 0, 0, 0, 0, 0, 0, 0, 0, 0, 0, 0, 0, 0, 0, 0, 0, 0, 0, 0, 0,
                    0, 0, 0, 0, 0, 0, 0, 0, 0, 0, 0, 0, 0, 0, 0, 0, 0, 0, 0, 0, 0, 0, 0, 0, 0, 0, 0, 0, 1, 0,
                    0, 0, 0, 0, 0, 0, 0, 0, 0, 0]);
